     Program PWSCF v.6.2 (svn rev. 14038) starts on 18May2018 at 10:45:40

     K-points division:     npool     =      10
     R & G space division:  proc/nbgrp/npool/nimage =      36
     Waiting for input...
     Reading input from standard input
Warning: card &CELL ignored
Warning: card   CELL_DYNAMICS = 'BFGS', ignored
Warning: card   CELL_DOFREE = 'Z', ignored
Warning: card   PRESS_CONV_THR = 0.02, ignored
Warning: card / ignored

     Current dimensions of program PWSCF are:
     Max number of different atomic species (ntypx) = 10
     Max number of k-points (npk) =  40000
     Max angular momentum in pseudopotentials (lmaxx) =  3
     Presently no symmetry can be used with electric field

     IMPORTANT: XC functional enforced from input :
     Exchange-correlation      = PBESOL ( 1  4 10  8 0 0)
     Any further DFT definition will be discarded
     Please, verify this is what you really want

     Subspace diagonalization in iterative solution of the eigenvalue problem:
     one sub-group per band group will be used

     Found symmetry operation: I + ( -0.5000 -0.5000  0.0000)
     This is a supercell, fractional translations are disabled

     bravais-lattice index     =            0
     lattice parameter (alat)  =      11.1887  a.u.
     unit-cell volume          =    8022.4856 (a.u.)^3
     number of atoms/cell      =           20
     number of atomic types    =            3
     number of electrons       =       160.00
     number of Kohn-Sham states=           96
     kinetic-energy cutoff     =      60.0000  Ry
     charge density cutoff     =     240.0000  Ry
     convergence threshold     =      1.0E-06
     mixing beta               =       0.3000
     number of iterations used =            8  plain     mixing
     Exchange-correlation      = PBESOL ( 1  4 10  8 0 0)
     nstep                     =          400

     celldm(1)=  11.188695  celldm(2)=   0.000000  celldm(3)=   0.000000
     celldm(4)=   0.000000  celldm(5)=   0.000000  celldm(6)=   0.000000

     crystal axes: (cart. coord. in units of alat)
               a(1) = (   1.000000   0.000000   0.000000 )
               a(2) = (   0.000000   1.000000   0.000000 )
               a(3) = (   0.000000   0.000000   5.727573 )

     reciprocal axes: (cart. coord. in units 2 pi/alat)
               b(1) = (  1.000000  0.000000  0.000000 )
               b(2) = (  0.000000  1.000000  0.000000 )
               b(3) = (  0.000000  0.000000  0.174594 )

     PseudoPot. # 1 for Ba read from file:
     ~/BTO-psp/ba.upf
     MD5 check sum: Not computed, couldn't open file
     Pseudo is Norm-conserving, Zval = 10.0
     Generated by new atomic code, or converted to UPF format
     Using radial grid of 1179 points,  3 beta functions with:
                l(1) =   0
                l(2) =   1
                l(3) =   2

     PseudoPot. # 2 for Zr read from file:
     ~/BTO-psp/zr.upf
     MD5 check sum: Not computed, couldn't open file
     Pseudo is Norm-conserving, Zval = 12.0
     Generated by new atomic code, or converted to UPF format
     Using radial grid of 1171 points,  3 beta functions with:
                l(1) =   0
                l(2) =   1
                l(3) =   2

     PseudoPot. # 3 for O  read from file:
     ~/BTO-psp/o.upf
     MD5 check sum: Not computed, couldn't open file
     Pseudo is Norm-conserving, Zval =  6.0
     Generated by new atomic code, or converted to UPF format
     Using radial grid of 1130 points,  1 beta functions with:
                l(1) =   1

     atomic species   valence    mass     pseudopotential
        Ba            10.00   137.33000     Ba( 1.00)
        Zr            12.00    91.22400     Zr( 1.00)
        O              6.00    15.99900     O ( 1.00)

     No symmetry found

                                    s                        frac. trans.

      isym =  1     identity

 cryst.   s( 1) = (     1          0          0      )
                  (     0          1          0      )
                  (     0          0          1      )

 cart.    s( 1) = (  1.0000000  0.0000000  0.0000000 )
                  (  0.0000000  1.0000000  0.0000000 )
                  (  0.0000000  0.0000000  1.0000000 )

   Cartesian axes

     site n.     atom                  positions (alat units)
         1           Ba  tau(   1) = (   0.0000000   0.0000000   0.7071068  )
         2           Ba  tau(   2) = (   0.5000000   0.5000000   0.7071068  )
         3           Zr  tau(   3) = (   0.5000000   0.0000000   1.0606602  )
         4           Zr  tau(   4) = (   0.0000000   0.5000000   1.0606602  )
         5           O   tau(   5) = (   0.5000000   0.0000000   0.7071068  )
         6           O   tau(   6) = (   0.0000000   0.5000000   0.7071068  )
         7           O   tau(   7) = (   0.2500000   0.7500000   1.0606602  )
         8           O   tau(   8) = (   0.7500000   0.2500000   1.0606602  )
         9           O   tau(   9) = (   0.2500000   0.2500000   1.0606602  )
        10           O   tau(  10) = (   0.7500000   0.7500000   1.0606602  )
        11           Ba  tau(  11) = (   0.0000000   0.0000000   1.4142136  )
        12           Ba  tau(  12) = (   0.5000000   0.5000000   1.4142136  )
        13           Zr  tau(  13) = (   0.5000000   0.0000000   1.7677670  )
        14           Zr  tau(  14) = (   0.0000000   0.5000000   1.7677670  )
        15           O   tau(  15) = (   0.5000000   0.0000000   1.4142136  )
        16           O   tau(  16) = (   0.0000000   0.5000000   1.4142136  )
        17           O   tau(  17) = (   0.2500000   0.7500000   1.7677670  )
        18           O   tau(  18) = (   0.7500000   0.2500000   1.7677670  )
        19           O   tau(  19) = (   0.2500000   0.2500000   1.7677670  )
        20           O   tau(  20) = (   0.7500000   0.7500000   1.7677670  )

   Crystallographic axes

     site n.     atom                  positions (cryst. coord.)
         1           Ba  tau(   1) = (  0.0000000  0.0000000  0.1234566  )
         2           Ba  tau(   2) = (  0.5000000  0.5000000  0.1234566  )
         3           Zr  tau(   3) = (  0.5000000  0.0000000  0.1851849  )
         4           Zr  tau(   4) = (  0.0000000  0.5000000  0.1851849  )
         5           O   tau(   5) = (  0.5000000  0.0000000  0.1234566  )
         6           O   tau(   6) = (  0.0000000  0.5000000  0.1234566  )
         7           O   tau(   7) = (  0.2500000  0.7500000  0.1851849  )
         8           O   tau(   8) = (  0.7500000  0.2500000  0.1851849  )
         9           O   tau(   9) = (  0.2500000  0.2500000  0.1851849  )
        10           O   tau(  10) = (  0.7500000  0.7500000  0.1851849  )
        11           Ba  tau(  11) = (  0.0000000  0.0000000  0.2469133  )
        12           Ba  tau(  12) = (  0.5000000  0.5000000  0.2469133  )
        13           Zr  tau(  13) = (  0.5000000  0.0000000  0.3086416  )
        14           Zr  tau(  14) = (  0.0000000  0.5000000  0.3086416  )
        15           O   tau(  15) = (  0.5000000  0.0000000  0.2469133  )
        16           O   tau(  16) = (  0.0000000  0.5000000  0.2469133  )
        17           O   tau(  17) = (  0.2500000  0.7500000  0.3086416  )
        18           O   tau(  18) = (  0.7500000  0.2500000  0.3086416  )
        19           O   tau(  19) = (  0.2500000  0.2500000  0.3086416  )
        20           O   tau(  20) = (  0.7500000  0.7500000  0.3086416  )

     number of k points=    20  gaussian smearing, width (Ry)=  0.0020
                       cart. coord. in units 2pi/alat
        k(    1) = (   0.0000000   0.0000000   0.0000000), wk =   0.0555556
        k(    2) = (   0.0000000   0.1666667   0.0000000), wk =   0.1111111
        k(    3) = (   0.0000000   0.3333333   0.0000000), wk =   0.1111111
        k(    4) = (   0.0000000  -0.5000000   0.0000000), wk =   0.0555556
        k(    5) = (   0.1666667   0.0000000   0.0000000), wk =   0.1111111
        k(    6) = (   0.1666667   0.1666667   0.0000000), wk =   0.1111111
        k(    7) = (   0.1666667   0.3333333   0.0000000), wk =   0.1111111
        k(    8) = (   0.1666667  -0.5000000   0.0000000), wk =   0.1111111
        k(    9) = (   0.1666667  -0.3333333   0.0000000), wk =   0.1111111
        k(   10) = (   0.1666667  -0.1666667   0.0000000), wk =   0.1111111
        k(   11) = (   0.3333333   0.0000000   0.0000000), wk =   0.1111111
        k(   12) = (   0.3333333   0.1666667   0.0000000), wk =   0.1111111
        k(   13) = (   0.3333333   0.3333333   0.0000000), wk =   0.1111111
        k(   14) = (   0.3333333  -0.5000000   0.0000000), wk =   0.1111111
        k(   15) = (   0.3333333  -0.3333333   0.0000000), wk =   0.1111111
        k(   16) = (   0.3333333  -0.1666667   0.0000000), wk =   0.1111111
        k(   17) = (  -0.5000000   0.0000000   0.0000000), wk =   0.0555556
        k(   18) = (  -0.5000000   0.1666667   0.0000000), wk =   0.1111111
        k(   19) = (  -0.5000000   0.3333333   0.0000000), wk =   0.1111111
        k(   20) = (  -0.5000000  -0.5000000   0.0000000), wk =   0.0555556

                       cryst. coord.
        k(    1) = (   0.0000000   0.0000000   0.0000000), wk =   0.0555556
        k(    2) = (   0.0000000   0.1666667   0.0000000), wk =   0.1111111
        k(    3) = (   0.0000000   0.3333333   0.0000000), wk =   0.1111111
        k(    4) = (   0.0000000  -0.5000000   0.0000000), wk =   0.0555556
        k(    5) = (   0.1666667   0.0000000   0.0000000), wk =   0.1111111
        k(    6) = (   0.1666667   0.1666667   0.0000000), wk =   0.1111111
        k(    7) = (   0.1666667   0.3333333   0.0000000), wk =   0.1111111
        k(    8) = (   0.1666667  -0.5000000   0.0000000), wk =   0.1111111
        k(    9) = (   0.1666667  -0.3333333   0.0000000), wk =   0.1111111
        k(   10) = (   0.1666667  -0.1666667   0.0000000), wk =   0.1111111
        k(   11) = (   0.3333333   0.0000000   0.0000000), wk =   0.1111111
        k(   12) = (   0.3333333   0.1666667   0.0000000), wk =   0.1111111
        k(   13) = (   0.3333333   0.3333333   0.0000000), wk =   0.1111111
        k(   14) = (   0.3333333  -0.5000000   0.0000000), wk =   0.1111111
        k(   15) = (   0.3333333  -0.3333333   0.0000000), wk =   0.1111111
        k(   16) = (   0.3333333  -0.1666667   0.0000000), wk =   0.1111111
        k(   17) = (  -0.5000000   0.0000000   0.0000000), wk =   0.0555556
        k(   18) = (  -0.5000000   0.1666667   0.0000000), wk =   0.1111111
        k(   19) = (  -0.5000000   0.3333333   0.0000000), wk =   0.1111111
        k(   20) = (  -0.5000000  -0.5000000   0.0000000), wk =   0.0555556

     Initial potential from superposition of free atoms
     Check: negative starting charge=   -0.002596

     starting charge  135.99998, renormalised to  160.00000

     negative rho (up, down):  3.054E-03 0.000E+00

     Adding external electric field

     Computed dipole along edir(3) :
        Elec. dipole         -0.5236 Ry au,         -1.3308 Debye
        Ion. dipole          -0.5119 Ry au,         -1.3011 Debye
        Dipole                7.4462 Ry au,         18.9264 Debye
        Dipole field          0.0117 Ry au,

[...]

ATOMIC_POSITIONS (crystal)
Ba       0.000000000   0.000000000   0.123456630    0   0   0
Ba       0.500000000   0.500000000   0.123456630    0   0   0
Zr       0.500000000   0.000000000   0.185184946    0   0   0
Zr       0.000000000   0.500000000   0.185184946    0   0   0
O        0.500000000   0.000000000   0.123456630    0   0   0
O        0.000000000   0.500000000   0.123456630    0   0   0
O        0.250000000   0.750000000   0.185184946    0   0   0
O        0.750000000   0.250000000   0.185184946    0   0   0
O        0.250000000   0.250000000   0.185184946    0   0   0
O        0.750000000   0.750000000   0.185184946    0   0   0
Ba      -0.000000311  -0.000000129   0.250827504
Ba       0.500000254   0.500000062   0.250827503
Zr       0.500000025  -0.000000035   0.306181814
Zr       0.000000052   0.500000120   0.306181783
O        0.500000594  -0.000000387   0.248113719
O       -0.000000217   0.500000694   0.248113666
O        0.250000015   0.749999911   0.306999731
O        0.749999859   0.250000179   0.306999874
O        0.249999766   0.249999858   0.306999336
O        0.749999836   0.749999836   0.306999306

     Writing output data file BZO.save
     Check: negative starting charge=   -0.002895
     NEW-OLD atomic charge density approx. for the potential
     Check: negative starting charge=   -0.002895

[...]

     Self-consistent Calculation

[...]

     Threshold (ethr) on eigenvalues was too large:
     Diagonalizing with lowered threshold

     Davidson diagonalization with overlap
     ethr =  6.92E-11,  avg # of iterations =  4.2

[...]

     negative rho (up, down):  2.247E-07 0.000E+00

[...]

     total energy              =    -963.56223320 Ry
     Harris-Foulkes estimate   =    -963.56223279 Ry
     estimated scf accuracy    <       0.00000002 Ry

     iteration #  3     ecut=    60.00 Ry     beta= 0.30
     Davidson diagonalization with overlap
     ethr =  1.09E-11,  avg # of iterations =  2.7

     Adding external electric field

     Computed dipole along edir(3) :
        Elec. dipole         -0.5113 Ry au,         -1.2996 Debye
        Ion. dipole          -0.5125 Ry au,         -1.3026 Debye
        Dipole               -0.7468 Ry au,         -1.8982 Debye
        Dipole field         -0.0012 Ry au,

        Potential amp.        0.1455 Ry
        Total length         62.1943 bohr

     End of self-consistent calculation

[...]

          k = 0.3333-0.1667 0.0000 ( 62915 PWs)   bands (ev):

[...]

          k =-0.5000-0.5000 0.0000 ( 63128 PWs)   bands (ev):

   -47.9210 -47.9210 -47.6698 -47.6698 -26.9708 -26.9708 -26.5138 -26.5138
   -26.3235 -26.3235 -26.1795 -26.1795 -26.0396 -26.0396 -26.0089 -26.0089
   -25.9252 -25.9252 -25.6744 -25.6744 -17.0699 -17.0699 -16.7854 -16.7854
   -16.4319 -16.4319 -15.8465 -15.8465 -15.7321 -15.7321 -15.3879 -15.3879
   -12.3576 -12.3576 -11.9977 -11.9977 -11.9874 -11.9874 -11.0396 -11.0396
   -10.9998 -10.9998 -10.9970 -10.9970  -4.6096  -4.6096  -4.4305  -4.4305
    -4.3289  -4.3289  -4.0466  -4.0466  -3.4823  -3.4823  -3.2615  -3.2615
    -3.0553  -3.0553  -2.5078  -2.5078  -2.3561  -2.3561  -2.3509  -2.3509
    -2.3157  -2.3157  -1.8323  -1.8323  -1.6620  -1.6620  -1.4683  -1.4683
    -1.4682  -1.4682  -1.3787  -1.3787  -1.2450  -1.2450  -1.1259  -1.1259
     2.9838   2.9838   3.2060   3.2060   3.4007   3.4007   4.1610   4.1610
     4.2757   4.2757   4.5122   4.5122   4.6964   4.6964   4.7528   4.7528

     occupation numbers
     1.0000   1.0000   1.0000   1.0000   1.0000   1.0000   1.0000   1.0000
     1.0000   1.0000   1.0000   1.0000   1.0000   1.0000   1.0000   1.0000
     1.0000   1.0000   1.0000   1.0000   1.0000   1.0000   1.0000   1.0000
     1.0000   1.0000   1.0000   1.0000   1.0000   1.0000   1.0000   1.0000
     1.0000   1.0000   1.0000   1.0000   1.0000   1.0000   1.0000   1.0000
     1.0000   1.0000   1.0000   1.0000   1.0000   1.0000   1.0000   1.0000
     1.0000   1.0000   1.0000   1.0000   1.0000   1.0000   1.0000   1.0000
     1.0000   1.0000   1.0000   1.0000   1.0000   1.0000   1.0000   1.0000
     1.0000   1.0000   1.0000   1.0000   1.0000   1.0000   1.0000   1.0000
     1.0000   1.0000   1.0000   1.0000   1.0000   1.0000   1.0000   1.0000
     0.0000   0.0000   0.0000   0.0000   0.0000   0.0000   0.0000   0.0000
     0.0000   0.0000   0.0000   0.0000   0.0000   0.0000   0.0000   0.0000

     the Fermi energy is     1.5081 ev

!    total energy              =    -963.56223320 Ry
     Harris-Foulkes estimate   =    -963.56223411 Ry
     estimated scf accuracy    <          2.6E-09 Ry

     The total energy is the sum of the following terms:

     one-electron contribution =  -16086.12270914 Ry
     hartree contribution      =    8071.51968576 Ry
     xc contribution           =    -159.44452987 Ry
     ewald contribution        =    7210.48444641 Ry
     electric field correction =       0.00087363 Ry
     smearing contrib. (-TS)   =      -0.00000000 Ry

     convergence has been achieved in   3 iterations

     Forces acting on atoms (cartesian axes, Ry/au):

     atom    1 type  1   force =    -0.00000000   -0.00000002    0.04629570
     atom    2 type  1   force =     0.00000001    0.00000003    0.04629568
     atom    3 type  2   force =    -0.00000010   -0.00000012   -0.04385455
     atom    4 type  2   force =     0.00000008    0.00000010   -0.04385482
     atom    5 type  3   force =     0.00000003    0.00000000    0.00002085
     atom    6 type  3   force =    -0.00000001    0.00000002    0.00002070
     atom    7 type  3   force =     0.00000010    0.00000012   -0.00124874
     atom    8 type  3   force =    -0.00000001   -0.00000001   -0.00124864
     atom    9 type  3   force =     0.00000006   -0.00000009   -0.00124865
     atom   10 type  3   force =    -0.00000007    0.00000005   -0.00124903
     atom   11 type  1   force =     0.00000031    0.00000011    0.00001290
     atom   12 type  1   force =    -0.00000027   -0.00000002    0.00001291
     atom   13 type  2   force =    -0.00000006    0.00000035   -0.00000492
     atom   14 type  2   force =    -0.00000008   -0.00000048   -0.00000469
     atom   15 type  3   force =    -0.00000034    0.00000045    0.00003161
     atom   16 type  3   force =     0.00000004   -0.00000066    0.00003244
     atom   17 type  3   force =    -0.00000001    0.00000018   -0.00000222
     atom   18 type  3   force =     0.00000000   -0.00000029   -0.00000297
     atom   19 type  3   force =     0.00000019   -0.00000002   -0.00000217
     atom   20 type  3   force =     0.00000014    0.00000031   -0.00000140
     The non-local contrib.  to forces
     atom    1 type  1   force =     0.00000000    0.00000003   -0.13326775
     atom    2 type  1   force =    -0.00000001   -0.00000003   -0.13326775
     atom    3 type  2   force =    -0.00000012    0.00000013    0.03241623
     atom    4 type  2   force =     0.00000004   -0.00000020    0.03241593
     atom    5 type  3   force =     0.00000003    0.00000002    0.35336114
     atom    6 type  3   force =    -0.00000000    0.00000001    0.35336088
     atom    7 type  3   force =     0.00000009    0.00000014   -0.02151563
     atom    8 type  3   force =    -0.00000000   -0.00000002   -0.02151525
     atom    9 type  3   force =     0.00000005   -0.00000009   -0.02151563
     atom   10 type  3   force =    -0.00000006    0.00000005   -0.02151603
     atom   11 type  1   force =     0.00000046    0.00000074   -0.05540823
     atom   12 type  1   force =    -0.00000038   -0.00000061   -0.05540835
     atom   13 type  2   force =    -0.00000017    0.00000006    0.11800730
     atom   14 type  2   force =     0.00000006   -0.00000007    0.11800689
     atom   15 type  3   force =    -0.00000092    0.00000135    0.20531090
     atom   16 type  3   force =     0.00000001   -0.00000198    0.20530958
     atom   17 type  3   force =    -0.00000097   -0.00000041   -0.10981604
     atom   18 type  3   force =     0.00000006   -0.00000096   -0.10981895
     atom   19 type  3   force =     0.00000017    0.00000078   -0.10981311
     atom   20 type  3   force =     0.00000071    0.00000091   -0.10981207
     The ionic contribution  to forces
     atom    1 type  1   force =     0.00000143    0.00000137  -92.85924982
     atom    2 type  1   force =    -0.00000127   -0.00000123  -92.85924993
     atom    3 type  2   force =    -0.00001984    0.00001466  -44.04141169
     atom    4 type  2   force =     0.00001320   -0.00002030  -44.04142909
     atom    5 type  3   force =    -0.00000087    0.00000074  -60.89589235
     atom    6 type  3   force =     0.00000076   -0.00000084  -60.89589310
     atom    7 type  3   force =     0.00000258    0.00000293  -21.90896071
     atom    8 type  3   force =    -0.00000012   -0.00000036  -21.90896089
     atom    9 type  3   force =     0.00000059   -0.00000259  -21.90895090
     atom   10 type  3   force =    -0.00000211    0.00000069  -21.90897646
     atom   11 type  1   force =     0.00003850    0.00004581   25.72039332
     atom   12 type  1   force =    -0.00003218   -0.00003779   25.72038647
     atom   13 type  2   force =    -0.00002367    0.00002844  102.36513382
     atom   14 type  2   force =     0.00001799   -0.00003053  102.36508894
     atom   15 type  3   force =    -0.00000776    0.00001150   12.64998424
     atom   16 type  3   force =     0.00000962   -0.00001083   12.64998114
     atom   17 type  3   force =     0.00000731    0.00000808   50.43960769
     atom   18 type  3   force =     0.00000076    0.00000331   50.43969262
     atom   19 type  3   force =    -0.00000284   -0.00001153   50.43934685
     atom   20 type  3   force =    -0.00000210   -0.00000155   50.43935985
     The local contribution  to forces
     atom    1 type  1   force =    -0.00000144   -0.00000141   93.01529504
     atom    2 type  1   force =     0.00000129    0.00000127   93.01529514
     atom    3 type  2   force =     0.00001985   -0.00001494   43.93692392
     atom    4 type  2   force =    -0.00001315    0.00002061   43.93694124
     atom    5 type  3   force =     0.00000087   -0.00000076   60.52839606
     atom    6 type  3   force =    -0.00000077    0.00000085   60.52839690
     atom    7 type  3   force =    -0.00000259   -0.00000296   21.91505308
     atom    8 type  3   force =     0.00000013    0.00000037   21.91505289
     atom    9 type  3   force =    -0.00000061    0.00000260   21.91504331
     atom   10 type  3   force =     0.00000212   -0.00000071   21.91506889
     atom   11 type  1   force =    -0.00003862   -0.00004645  -25.68852184
     atom   12 type  1   force =     0.00003229    0.00003840  -25.68851484
     atom   13 type  2   force =     0.00002370   -0.00002815 -102.51142076
     atom   14 type  2   force =    -0.00001810    0.00003009 -102.51137474
     atom   15 type  3   force =     0.00000807   -0.00001212  -12.86940085
     atom   16 type  3   force =    -0.00000952    0.00001175  -12.86939536
     atom   17 type  3   force =    -0.00000633   -0.00000736  -50.34402234
     atom   18 type  3   force =    -0.00000074   -0.00000272  -50.34410555
     atom   19 type  3   force =     0.00000290    0.00001068  -50.34376453
     atom   20 type  3   force =     0.00000165    0.00000106  -50.34377719
     The core correction contribution to forces
     atom    1 type  1   force =     0.00000000    0.00000000    0.00000000
     atom    2 type  1   force =     0.00000000    0.00000000    0.00000000
     atom    3 type  2   force =     0.00000000    0.00000000    0.00000000
     atom    4 type  2   force =     0.00000000    0.00000000    0.00000000
     atom    5 type  3   force =     0.00000000    0.00000000    0.00000000
     atom    6 type  3   force =     0.00000000    0.00000000    0.00000000
     atom    7 type  3   force =     0.00000000    0.00000000    0.00000000
     atom    8 type  3   force =     0.00000000    0.00000000    0.00000000
     atom    9 type  3   force =     0.00000000    0.00000000    0.00000000
     atom   10 type  3   force =     0.00000000    0.00000000    0.00000000
     atom   11 type  1   force =     0.00000000    0.00000000    0.00000000
     atom   12 type  1   force =     0.00000000    0.00000000    0.00000000
     atom   13 type  2   force =     0.00000000    0.00000000    0.00000000
     atom   14 type  2   force =     0.00000000    0.00000000    0.00000000
     atom   15 type  3   force =     0.00000000    0.00000000    0.00000000
     atom   16 type  3   force =     0.00000000    0.00000000    0.00000000
     atom   17 type  3   force =     0.00000000    0.00000000    0.00000000
     atom   18 type  3   force =     0.00000000    0.00000000    0.00000000
     atom   19 type  3   force =     0.00000000    0.00000000    0.00000000
     atom   20 type  3   force =     0.00000000    0.00000000    0.00000000
     The Hubbard contrib.    to forces
     atom    1 type  1   force =     0.00000000    0.00000000    0.00000000
     atom    2 type  1   force =     0.00000000    0.00000000    0.00000000
     atom    3 type  2   force =     0.00000000    0.00000000    0.00000000
     atom    4 type  2   force =     0.00000000    0.00000000    0.00000000
     atom    5 type  3   force =     0.00000000    0.00000000    0.00000000
     atom    6 type  3   force =     0.00000000    0.00000000    0.00000000
     atom    7 type  3   force =     0.00000000    0.00000000    0.00000000
     atom    8 type  3   force =     0.00000000    0.00000000    0.00000000
     atom    9 type  3   force =     0.00000000    0.00000000    0.00000000
     atom   10 type  3   force =     0.00000000    0.00000000    0.00000000
     atom   11 type  1   force =     0.00000000    0.00000000    0.00000000
     atom   12 type  1   force =     0.00000000    0.00000000    0.00000000
     atom   13 type  2   force =     0.00000000    0.00000000    0.00000000
     atom   14 type  2   force =     0.00000000    0.00000000    0.00000000
     atom   15 type  3   force =     0.00000000    0.00000000    0.00000000
     atom   16 type  3   force =     0.00000000    0.00000000    0.00000000
     atom   17 type  3   force =     0.00000000    0.00000000    0.00000000
     atom   18 type  3   force =     0.00000000    0.00000000    0.00000000
     atom   19 type  3   force =     0.00000000    0.00000000    0.00000000
     atom   20 type  3   force =     0.00000000    0.00000000    0.00000000
     The SCF correction term to forces
     atom    1 type  1   force =     0.00000000    0.00000000    0.00000000
     atom    2 type  1   force =     0.00000000    0.00000000    0.00000000
     atom    3 type  2   force =     0.00000000    0.00000000    0.00000000
     atom    4 type  2   force =     0.00000000    0.00000000    0.00000000
     atom    5 type  3   force =     0.00000000    0.00000000    0.00000000
     atom    6 type  3   force =     0.00000000    0.00000000    0.00000000
     atom    7 type  3   force =     0.00000000    0.00000000    0.00000000
     atom    8 type  3   force =     0.00000000    0.00000000    0.00000000
     atom    9 type  3   force =     0.00000000    0.00000000    0.00000000
     atom   10 type  3   force =     0.00000000    0.00000000    0.00000000
     atom   11 type  1   force =    -0.00000003    0.00000001    0.00004252
     atom   12 type  1   force =    -0.00000000   -0.00000002    0.00004249
     atom   13 type  2   force =     0.00000008   -0.00000001    0.00008835
     atom   14 type  2   force =    -0.00000003    0.00000004    0.00008785
     atom   15 type  3   force =     0.00000027   -0.00000027   -0.00001133
     atom   16 type  3   force =    -0.00000007    0.00000040   -0.00001158
     atom   17 type  3   force =    -0.00000002   -0.00000014    0.00007981
     atom   18 type  3   force =    -0.00000009    0.00000008    0.00008025
     atom   19 type  3   force =    -0.00000005    0.00000005    0.00007996
     atom   20 type  3   force =    -0.00000011   -0.00000011    0.00007935

     Total force =     0.000050     Total SCF correction =     0.000212
     SCF correction compared to forces is large: reduce conv_thr to get better values

     bfgs converged in  19 scf cycles and  18 bfgs steps
     (criteria: energy <  1.0E-06 Ry, force <  1.0E-04 Ry/Bohr)

     End of BFGS Geometry Optimization

     Final energy   =    -963.5622332021 Ry
Begin final coordinates

ATOMIC_POSITIONS (crystal)
Ba       0.000000000   0.000000000   0.123456630    0   0   0
Ba       0.500000000   0.500000000   0.123456630    0   0   0
Zr       0.500000000   0.000000000   0.185184946    0   0   0
Zr       0.000000000   0.500000000   0.185184946    0   0   0
End final coordinates

     Writing output data file BZO.save

     General routines

     Parallel routines

   This run was terminated on:  10:51:20  18May2018

   JOB DONE.